
Gurobi 7.0.2 (linux64) logging started Mon Jun 12 14:35:08 2017

Changed value of parameter logfile to result/NEIS-20170612T0949/scenario_300000PVS30PVWE10var-cost0010.log
   Prev: gurobi.log  Default: 
Optimize a model with 1059933 rows, 937229 columns and 3979188 nonzeros
Coefficient statistics:
  Matrix range     [8e-04, 1e+05]
  Objective range  [1e+00, 1e+00]
  Bounds range     [0e+00, 0e+00]
  RHS range        [3e-03, 3e+05]

Concurrent LP optimizer: primal simplex, dual simplex, and barrier
Showing barrier log only...

Presolve removed 594694 rows and 643281 columns
Presolve time: 2.48s
Presolved: 465239 rows, 293948 columns, 1347043 nonzeros

Ordering time: 0.40s

Barrier statistics:
 Dense cols : 21
 AA' NZ     : 1.881e+06
 Factor NZ  : 6.959e+06 (roughly 400 MBytes of memory)
 Factor Ops : 1.640e+08 (less than 1 second per iteration)
 Threads    : 22

                  Objective                Residual
Iter       Primal          Dual         Primal    Dual     Compl     Time
   0   3.86366248e+11 -2.66702264e+11  9.53e+02 6.93e+03  2.20e+07     4s
   1   3.05960118e+11 -9.70805921e+10  6.93e+02 1.33e+04  7.03e+06     4s
   2   2.98688765e+11 -6.90606581e+10  6.86e+02 8.97e+03  5.68e+06     5s
   3   2.07972288e+11 -1.19273911e+11  4.79e+02 1.96e+03  5.34e+06     6s
   4   3.82626931e+10 -1.16918322e+11  6.25e+01 1.55e+02  8.41e+05     6s
   5   4.15388463e+09 -6.11996080e+10  5.49e+00 2.52e+00  1.31e+05     6s
   6   4.68105141e+08 -1.69816158e+10  2.73e-01 1.62e-06  2.51e+04     7s
   7   2.42038840e+08 -2.38729573e+09  3.46e-02 1.62e-06  3.66e+03     7s
   8   1.24928842e+08 -7.52136960e+08  1.97e-03 5.85e-07  1.21e+03     8s
   9   8.87866005e+07 -8.21948240e+07  5.27e-04 4.18e-08  2.36e+02     8s
  10   7.23326489e+07 -6.51634311e+07  3.50e-04 4.06e-08  1.90e+02     9s
  11   6.86053508e+07 -5.36036399e+07  3.16e-04 3.53e-08  1.69e+02     9s
  12   6.25938515e+07 -4.19311527e+07  2.70e-04 2.95e-08  1.44e+02    10s
  13   5.43355983e+07 -1.37072140e+07  2.13e-04 1.80e-08  9.40e+01    10s
  14   3.53240118e+07  2.60954396e+06  1.18e-04 7.04e-09  4.52e+01    11s
  15   3.03299270e+07  5.75083901e+06  9.20e-05 4.73e-09  3.39e+01    11s
  16   2.63416436e+07  7.91588071e+06  7.28e-05 6.29e-09  2.54e+01    12s
  17   2.16034560e+07  9.76663947e+06  4.76e-05 1.12e-09  1.63e+01    12s
  18   1.97160870e+07  1.09397317e+07  3.75e-05 4.07e-10  1.21e+01    13s
  19   1.82129364e+07  1.13086487e+07  2.92e-05 3.05e-10  9.53e+00    13s
  20   1.78209241e+07  1.14088195e+07  2.69e-05 2.15e-09  8.85e+00    14s
  21   1.68983403e+07  1.16345872e+07  2.18e-05 4.11e-10  7.27e+00    14s
  22   1.64078231e+07  1.20254270e+07  1.90e-05 1.40e-09  6.05e+00    15s
  23   1.57074957e+07  1.21568757e+07  1.51e-05 1.57e-09  4.90e+00    15s
  24   1.51933383e+07  1.24640993e+07  1.22e-05 3.20e-10  3.77e+00    16s
  25   1.46076449e+07  1.26944881e+07  9.04e-06 2.27e-09  2.64e+00    16s
  26   1.42771383e+07  1.27644556e+07  7.17e-06 2.74e-09  2.09e+00    17s
  27   1.41115688e+07  1.28234355e+07  6.19e-06 4.95e-09  1.78e+00    17s
  28   1.40073099e+07  1.28580920e+07  5.57e-06 6.46e-09  1.59e+00    18s
  29   1.38857106e+07  1.28783997e+07  4.85e-06 9.26e-09  1.39e+00    18s
  30   1.37731037e+07  1.29226650e+07  4.24e-06 9.95e-09  1.17e+00    18s
  31   1.36829243e+07  1.29352407e+07  3.71e-06 8.96e-09  1.03e+00    19s
  32   1.36046686e+07  1.29552065e+07  3.25e-06 1.23e-08  8.97e-01    19s
  33   1.34877308e+07  1.29781772e+07  2.58e-06 1.25e-08  7.04e-01    20s
  34   1.33862277e+07  1.29873208e+07  2.02e-06 1.33e-08  5.51e-01    21s
  35   1.33576798e+07  1.29914475e+07  1.85e-06 1.39e-08  5.06e-01    21s
  36   1.33105262e+07  1.30026414e+07  1.56e-06 1.47e-08  4.25e-01    21s
  37   1.32966763e+07  1.30061452e+07  1.48e-06 1.31e-08  4.01e-01    22s
  38   1.32561274e+07  1.30137277e+07  1.25e-06 1.42e-08  3.35e-01    22s
  39   1.32337238e+07  1.30194197e+07  1.12e-06 1.46e-08  2.96e-01    23s
  40   1.31808812e+07  1.30217714e+07  8.32e-07 1.46e-08  2.20e-01    23s
  41   1.31441705e+07  1.30268852e+07  6.16e-07 1.16e-08  1.62e-01    24s
  42   1.31321756e+07  1.30309604e+07  5.40e-07 1.04e-08  1.40e-01    24s
  43   1.31241822e+07  1.30318511e+07  4.89e-07 1.19e-08  1.28e-01    25s
  44   1.31121803e+07  1.30344664e+07  4.15e-07 1.04e-08  1.07e-01    25s
  45   1.31031521e+07  1.30354381e+07  3.59e-07 1.15e-08  9.35e-02    26s
  46   1.30957069e+07  1.30381334e+07  3.17e-07 1.98e-09  7.95e-02    26s
  47   1.30865762e+07  1.30392246e+07  2.59e-07 7.97e-09  6.54e-02    27s
  48   1.30744962e+07  1.30408438e+07  1.84e-07 9.49e-09  4.65e-02    27s
  49   1.30704900e+07  1.30419299e+07  1.60e-07 1.16e-08  3.94e-02    28s
  50   1.30659999e+07  1.30425679e+07  1.33e-07 9.78e-09  3.24e-02    28s
  51   1.30624240e+07  1.30428638e+07  1.11e-07 9.20e-09  2.70e-02    29s
  52   1.30598791e+07  1.30431604e+07  9.49e-08 6.17e-09  2.31e-02    29s
  53   1.30576631e+07  1.30433488e+07  8.12e-08 6.75e-09  1.98e-02    29s
  54   1.30546013e+07  1.30435043e+07  6.30e-08 6.05e-09  1.53e-02    30s
  55   1.30526058e+07  1.30436536e+07  5.02e-08 4.77e-09  1.24e-02    30s
  56   1.30507450e+07  1.30438860e+07  3.89e-08 3.61e-09  9.47e-03    31s
  57   1.30494129e+07  1.30440221e+07  3.13e-08 5.53e-10  7.44e-03    31s
  58   1.30487301e+07  1.30442308e+07  2.69e-08 1.86e-09  6.21e-03    32s
  59   1.30485513e+07  1.30442382e+07  2.57e-08 4.19e-09  5.96e-03    32s
  60   1.30483492e+07  1.30442564e+07  2.44e-08 6.34e-09  5.65e-03    33s
  61   1.30479183e+07  1.30443065e+07  2.16e-08 2.74e-09  4.99e-03    33s
  62   1.30475380e+07  1.30443285e+07  1.90e-08 4.54e-09  4.43e-03    34s
  63   1.30470385e+07  1.30443454e+07  1.57e-08 4.83e-09  3.72e-03    34s
  64   1.30467024e+07  1.30444107e+07  1.35e-08 2.25e-08  3.16e-03    35s
  65   1.30462016e+07  1.30444784e+07  1.06e-08 3.03e-08  2.38e-03    35s
  66   1.30458666e+07  1.30444923e+07  8.45e-09 1.80e-09  1.90e-03    36s
  67   1.30457263e+07  1.30445069e+07  7.50e-09 8.21e-09  1.68e-03    36s
  68   1.30455566e+07  1.30445175e+07  6.34e-09 1.44e-08  1.43e-03    37s
  69   1.30453680e+07  1.30445325e+07  5.10e-09 1.97e-08  1.15e-03    37s
  70   1.30451795e+07  1.30445570e+07  3.84e-09 2.99e-08  8.60e-04    38s
  71   1.30451117e+07  1.30445595e+07  3.38e-09 2.84e-08  7.63e-04    38s
  72   1.30449593e+07  1.30445649e+07  2.44e-09 2.41e-08  5.45e-04    39s
  73   1.30448212e+07  1.30445732e+07  1.47e-09 1.22e-08  3.42e-04    40s
  74   1.30447001e+07  1.30445798e+07  6.75e-10 1.07e-08  1.66e-04    41s
  75   1.30446756e+07  1.30445831e+07  9.36e-10 1.22e-08  1.28e-04    41s
  76   1.30446491e+07  1.30445869e+07  1.21e-06 1.24e-08  8.60e-05    42s
  77   1.30446464e+07  1.30445871e+07  1.90e-06 1.19e-08  8.18e-05    42s
  78   1.30446332e+07  1.30445892e+07  1.42e-06 6.73e-08  6.08e-05    43s
  79   1.30446325e+07  1.30445893e+07  1.40e-06 6.53e-08  5.97e-05    44s
  80   1.30446325e+07  1.30445893e+07  2.21e-06 6.52e-08  5.97e-05    44s
  81   1.30446284e+07  1.30445904e+07  1.87e-06 2.44e-08  5.24e-05    45s
  82   1.30446122e+07  1.30445910e+07  1.04e-06 5.82e-10  2.93e-05    46s
  83   1.30446122e+07  1.30445910e+07  1.79e-06 5.09e-10  2.93e-05    47s
  84   1.30446119e+07  1.30445910e+07  2.14e-06 1.98e-09  2.89e-05    47s
  85   1.30446119e+07  1.30445910e+07  2.90e-06 2.76e-10  2.89e-05    48s
  86   1.30446119e+07  1.30445910e+07  2.94e-06 3.06e-10  2.88e-05    48s
  87   1.30446119e+07  1.30445910e+07  2.98e-06 5.38e-10  2.88e-05    49s
  88   1.30446119e+07  1.30445910e+07  2.98e-06 6.98e-10  2.88e-05    50s
  89   1.30446119e+07  1.30445910e+07  2.98e-06 6.55e-10  2.88e-05    51s
  90   1.30446119e+07  1.30445910e+07  2.98e-06 4.51e-10  2.88e-05    52s
  91   1.30446119e+07  1.30445910e+07  2.98e-06 5.68e-10  2.88e-05    53s
  92   1.30446119e+07  1.30445910e+07  2.98e-06 4.95e-10  2.88e-05    54s

Barrier performed 92 iterations in 53.59 seconds
Sub-optimal termination - objective 1.30446122e+07

Crossover log...

  177130 DPushes remaining with DInf 0.0000000e+00                54s
   53709 DPushes remaining with DInf 0.0000000e+00                55s
   45522 DPushes remaining with DInf 0.0000000e+00                60s
   39470 DPushes remaining with DInf 0.0000000e+00                65s
   34486 DPushes remaining with DInf 0.0000000e+00                70s
   29858 DPushes remaining with DInf 0.0000000e+00                75s
   24518 DPushes remaining with DInf 0.0000000e+00                80s
   19534 DPushes remaining with DInf 0.0000000e+00                85s
   14550 DPushes remaining with DInf 0.0000000e+00                90s
    8454 DPushes remaining with DInf 0.0000000e+00                95s
    4343 DPushes remaining with DInf 0.0000000e+00               100s
    2550 DPushes remaining with DInf 0.0000000e+00               105s
       0 DPushes remaining with DInf 3.1018716e-09               106s

  168993 PPushes remaining with PInf 8.5909998e-03               106s
       0 PPushes remaining with PInf 5.7590413e-04               109s

  Push phase complete: Pinf 5.7590413e-04, Dinf 1.0114305e+03    109s

Iteration    Objective       Primal Inf.    Dual Inf.      Time
  345371    1.3044592e+07   0.000000e+00   1.011431e+03    110s
  345528    1.3044592e+07   0.000000e+00   0.000000e+00    111s

Solved with barrier
Solved in 345528 iterations and 110.90 seconds
Optimal objective  1.304459204e+07
